32      4       
11      19      11      17      
0       0       0       0       0       2       2       3       
8       9       19      0       0       3       6       5       4       
3       11      0       6       0       3       7       6       5       
9       0       7       11      0       3       13      9       7       
6       0       0       9       5       7       23      19      15      13      12      11      9       
3       0       0       9       16      5       24      20      19      14      8       
1       0       0       2       2       11      24      23      22      21      19      18      15      14      12      11      10      
4       0       0       10      9       10      23      22      21      17      16      15      13      12      11      10      
7       0       10      5       0       8       24      21      20      18      17      16      14      10      
6       0       12      0       17      5       31      28      27      26      25      
5       11      9       0       0       5       31      28      27      26      25      
10      8       18      0       0       5       31      28      27      26      25      
9       0       0       11      13      5       31      28      27      26      25      
1       11      0       0       16      4       31      28      27      26      
10      0       19      0       15      4       28      27      26      25      
3       0       0       11      13      4       31      28      26      25      
4       4       14      0       0       4       28      27      26      25      
3       7       0       2       0       4       31      28      26      25      
6       7       19      0       0       4       31      30      27      26      
8       0       0       11      16      4       31      30      27      26      
8       0       7       0       17      3       27      26      25      
6       0       0       8       5       3       27      26      25      
2       2       19      0       0       2       28      26      
9       5       18      0       0       2       27      25      
4       0       14      11      0       2       30      29      
5       10      0       11      0       1       29      
4       0       15      0       16      1       29      
1       11      14      0       0       1       30      
10      9       0       0       15      1       32      
1       8       0       7       0       1       32      
10      11      0       0       16      1       32      
0       0       0       0       0       0       
